67, 1896
1431, 27
541, 93
1955, 18
1946, 52
500, 26
886, 58
514, 62
958, 83
1796, 79
525, 77
1618, 71
1884, 50
1832, 98
1816, 11
1315, 24
754, 92
1664, 51
2384, 80
574, 62
2426, 8
962, 21
908, 29
1043, 84
1608, 47
865, 44
1045, 92
1341, 28
816, 74
1408, 81
1686, 35
2200, 14
1946, 6
1117, 95
2002, 55
512, 2
2425, 46
595, 51
1098, 83
2409, 47
1045, 75
1896, 70
1471, 47
2092, 78
1472, 79
1668, 13
1396, 90
2284, 60
1796, 67
2354, 72
1871, 51
1200, 6
1604, 78
929, 44
591, 0
1889, 17
2218, 76
1936, 91
1715, 79
1063, 68
1416, 48
1289, 14
2175, 56
2337, 71
717, 30
1366, 93
1212, 19
1802, 94